p cnf 96 240
c weights 1.0 1.0 2.718281828459045 0.36787944117144233 2.718281828459045 0.36787944117144233 1.0 1.0 2.718281828459045 0.36787944117144233 2.718281828459045 0.36787944117144233 1.0 1.0 2.718281828459045 0.36787944117144233 2.718281828459045 0.36787944117144233 1.0 1.0 2.718281828459045 0.36787944117144233 2.718281828459045 0.36787944117144233 1.0 1.0 2.718281828459045 0.36787944117144233 2.718281828459045 0.36787944117144233 1.0 1.0 2.718281828459045 0.36787944117144233 1.0 1.0 2.718281828459045 0.36787944117144233 2.718281828459045 0.36787944117144233 1.0 1.0 2.718281828459045 0.36787944117144233 2.718281828459045 0.36787944117144233 1.0 1.0 2.718281828459045 0.36787944117144233 2.718281828459045 0.36787944117144233 1.0 1.0 2.718281828459045 0.36787944117144233 2.718281828459045 0.36787944117144233 1.0 1.0 2.718281828459045 0.36787944117144233 2.718281828459045 0.36787944117144233 1.0 1.0 2.718281828459045 0.36787944117144233 1.0 1.0 2.718281828459045 0.36787944117144233 2.718281828459045 0.36787944117144233 1.0 1.0 2.718281828459045 0.36787944117144233 2.718281828459045 0.36787944117144233 1.0 1.0 2.718281828459045 0.36787944117144233 2.718281828459045 0.36787944117144233 1.0 1.0 2.718281828459045 0.36787944117144233 2.718281828459045 0.36787944117144233 1.0 1.0 2.718281828459045 0.36787944117144233 2.718281828459045 0.36787944117144233 1.0 1.0 2.718281828459045 0.36787944117144233 1.0 1.0 2.718281828459045 0.36787944117144233 2.718281828459045 0.36787944117144233 1.0 1.0 2.718281828459045 0.36787944117144233 2.718281828459045 0.36787944117144233 1.0 1.0 2.718281828459045 0.36787944117144233 2.718281828459045 0.36787944117144233 1.0 1.0 2.718281828459045 0.36787944117144233 2.718281828459045 0.36787944117144233 1.0 1.0 2.718281828459045 0.36787944117144233 2.718281828459045 0.36787944117144233 1.0 1.0 2.718281828459045 0.36787944117144233 1.0 1.0 2.718281828459045 0.36787944117144233 2.718281828459045 0.36787944117144233 1.0 1.0 2.718281828459045 0.36787944117144233 2.718281828459045 0.36787944117144233 1.0 1.0 2.718281828459045 0.36787944117144233 2.718281828459045 0.36787944117144233 1.0 1.0 2.718281828459045 0.36787944117144233 2.718281828459045 0.36787944117144233 1.0 1.0 2.718281828459045 0.36787944117144233 2.718281828459045 0.36787944117144233 1.0 1.0 2.718281828459045 0.36787944117144233 1.0 1.0 2.718281828459045 0.36787944117144233 1.0 1.0 2.718281828459045 0.36787944117144233 1.0 1.0 2.718281828459045 0.36787944117144233 1.0 1.0 2.718281828459045 0.36787944117144233 1.0 1.0 2.718281828459045 0.36787944117144233 1.0 1.0
2 1 4 0
2 -1 -4 0
-2 1 -4 0
-2 -1 4 0
3 1 18 0
3 -1 -18 0
-3 1 -18 0
-3 -1 18 0
5 4 7 0
5 -4 -7 0
-5 4 -7 0
-5 -4 7 0
6 4 21 0
6 -4 -21 0
-6 4 -21 0
-6 -4 21 0
8 7 10 0
8 -7 -10 0
-8 7 -10 0
-8 -7 10 0
9 7 24 0
9 -7 -24 0
-9 7 -24 0
-9 -7 24 0
11 10 13 0
11 -10 -13 0
-11 10 -13 0
-11 -10 13 0
12 10 27 0
12 -10 -27 0
-12 10 -27 0
-12 -10 27 0
14 13 16 0
14 -13 -16 0
-14 13 -16 0
-14 -13 16 0
15 13 30 0
15 -13 -30 0
-15 13 -30 0
-15 -13 30 0
17 16 33 0
17 -16 -33 0
-17 16 -33 0
-17 -16 33 0
19 18 21 0
19 -18 -21 0
-19 18 -21 0
-19 -18 21 0
20 18 35 0
20 -18 -35 0
-20 18 -35 0
-20 -18 35 0
22 21 24 0
22 -21 -24 0
-22 21 -24 0
-22 -21 24 0
23 21 38 0
23 -21 -38 0
-23 21 -38 0
-23 -21 38 0
25 24 27 0
25 -24 -27 0
-25 24 -27 0
-25 -24 27 0
26 24 41 0
26 -24 -41 0
-26 24 -41 0
-26 -24 41 0
28 27 30 0
28 -27 -30 0
-28 27 -30 0
-28 -27 30 0
29 27 44 0
29 -27 -44 0
-29 27 -44 0
-29 -27 44 0
31 30 33 0
31 -30 -33 0
-31 30 -33 0
-31 -30 33 0
32 30 47 0
32 -30 -47 0
-32 30 -47 0
-32 -30 47 0
34 33 50 0
34 -33 -50 0
-34 33 -50 0
-34 -33 50 0
36 35 38 0
36 -35 -38 0
-36 35 -38 0
-36 -35 38 0
37 35 52 0
37 -35 -52 0
-37 35 -52 0
-37 -35 52 0
39 38 41 0
39 -38 -41 0
-39 38 -41 0
-39 -38 41 0
40 38 55 0
40 -38 -55 0
-40 38 -55 0
-40 -38 55 0
42 41 44 0
42 -41 -44 0
-42 41 -44 0
-42 -41 44 0
43 41 58 0
43 -41 -58 0
-43 41 -58 0
-43 -41 58 0
45 44 47 0
45 -44 -47 0
-45 44 -47 0
-45 -44 47 0
46 44 61 0
46 -44 -61 0
-46 44 -61 0
-46 -44 61 0
48 47 50 0
48 -47 -50 0
-48 47 -50 0
-48 -47 50 0
49 47 64 0
49 -47 -64 0
-49 47 -64 0
-49 -47 64 0
51 50 67 0
51 -50 -67 0
-51 50 -67 0
-51 -50 67 0
53 52 55 0
53 -52 -55 0
-53 52 -55 0
-53 -52 55 0
54 52 69 0
54 -52 -69 0
-54 52 -69 0
-54 -52 69 0
56 55 58 0
56 -55 -58 0
-56 55 -58 0
-56 -55 58 0
57 55 72 0
57 -55 -72 0
-57 55 -72 0
-57 -55 72 0
59 58 61 0
59 -58 -61 0
-59 58 -61 0
-59 -58 61 0
60 58 75 0
60 -58 -75 0
-60 58 -75 0
-60 -58 75 0
62 61 64 0
62 -61 -64 0
-62 61 -64 0
-62 -61 64 0
63 61 78 0
63 -61 -78 0
-63 61 -78 0
-63 -61 78 0
65 64 67 0
65 -64 -67 0
-65 64 -67 0
-65 -64 67 0
66 64 81 0
66 -64 -81 0
-66 64 -81 0
-66 -64 81 0
68 67 84 0
68 -67 -84 0
-68 67 -84 0
-68 -67 84 0
70 69 72 0
70 -69 -72 0
-70 69 -72 0
-70 -69 72 0
71 69 86 0
71 -69 -86 0
-71 69 -86 0
-71 -69 86 0
73 72 75 0
73 -72 -75 0
-73 72 -75 0
-73 -72 75 0
74 72 88 0
74 -72 -88 0
-74 72 -88 0
-74 -72 88 0
76 75 78 0
76 -75 -78 0
-76 75 -78 0
-76 -75 78 0
77 75 90 0
77 -75 -90 0
-77 75 -90 0
-77 -75 90 0
79 78 81 0
79 -78 -81 0
-79 78 -81 0
-79 -78 81 0
80 78 92 0
80 -78 -92 0
-80 78 -92 0
-80 -78 92 0
82 81 84 0
82 -81 -84 0
-82 81 -84 0
-82 -81 84 0
83 81 94 0
83 -81 -94 0
-83 81 -94 0
-83 -81 94 0
85 84 96 0
85 -84 -96 0
-85 84 -96 0
-85 -84 96 0
87 86 88 0
87 -86 -88 0
-87 86 -88 0
-87 -86 88 0
89 88 90 0
89 -88 -90 0
-89 88 -90 0
-89 -88 90 0
91 90 92 0
91 -90 -92 0
-91 90 -92 0
-91 -90 92 0
93 92 94 0
93 -92 -94 0
-93 92 -94 0
-93 -92 94 0
95 94 96 0
95 -94 -96 0
-95 94 -96 0
-95 -94 96 0
